(set-logic QF_S)
(declare-fun var_0xINPUT_295298 () String)
(assert (and (= (len var_0xINPUT_295298) 0) (= (len var_0xINPUT_295298) 0) (not (= var_0xINPUT_295298 "4PH2ujcENG"))))
(check-sat var_0xINPUT_295298)